6	9	16	6	19	15	11	12	15	19
8	19	14	8	17	6	11	5	16	18
14	19	8	4	5	20	1	1	9	6
18	11	8	5	5	19	9	20	2	18
5	11	3	7	7	18	18	5	11	7
16	5	8	20	2	15	20	6	13	13
5	7	8	15	2	13	11	2	7	13
14	14	8	14	14	18	13	12	11	11
19	7	17	11	15	20	16	4	14	18
7	3	17	7	5	1	19	13	1	18
7	4	1	7	6	12	10	16	8	5
19	4	20	17	16	7	16	3	9	5
5	11	17	13	18	14	7	19	3	6
19	20	3	1	17	4	3	12	1	5
6	16	17	8	2	11	19	3	6	3
7	13	12	12	8	8	19	8	7	15
3	9	4	1	1	7	14	7	2	20
8	12	13	17	9	6	20	12	15	13
5	16	11	16	18	10	4	4	2	6
